%nproc=28
%mem=120GB
%chk=/gscratch/ilahie/mccoygrp/coire_hoono/hono/hono_r1_pert.chk
#p freq opt=(z-matrix) mp2/aug-cc-pvtz density=current

title

0 1
H
O 1 r1
N 2 r2 1 a1
O 3 r3 2 a2 1 d1
Variables
 r1=0.92026274 s 2 0.05
 r2=1.42776435 f
 r3=1.17680217 f 
 a1=101.62778538 f
 a2=110.70859147 f
 d1=180. f















