%nproc=28
%mem=120GB
%chk=hoono_a1_96p42015.chk
#p freq mp2/aug-cc-pvtz density=current

title

0 1
H       
O 1 r1     
O 2 r2 1 a1   
N 3 r3 2 a2 1 d1 
O 4 r4 3 a3 2 d2 
Variables
 r1=0.96897556
 r2=1.45491931
 r3=1.45878406
 r4=1.17072885
 a1=96.42015181698953
 a2=102.29752444
 a3=109.06955123
 d1=180.0
 d2=180.0










